unsat
(error "line 4092 column 17: model is not available")
(error "line 4093 column 17: model is not available")
(error "line 4094 column 18: model is not available")
(error "line 4095 column 19: model is not available")
(error "line 4096 column 19: model is not available")
(error "line 4097 column 19: model is not available")
(error "line 4098 column 19: model is not available")
(error "line 4099 column 19: model is not available")
(error "line 4100 column 19: model is not available")
(error "line 4101 column 19: model is not available")
(error "line 4102 column 19: model is not available")
(error "line 4103 column 19: model is not available")
(error "line 4104 column 19: model is not available")
(error "line 4105 column 18: model is not available")
(error "line 4106 column 19: model is not available")
(error "line 4107 column 19: model is not available")
(error "line 4108 column 19: model is not available")
(error "line 4109 column 19: model is not available")
(error "line 4110 column 19: model is not available")
(error "line 4111 column 19: model is not available")
(error "line 4112 column 19: model is not available")
(error "line 4113 column 19: model is not available")
(error "line 4114 column 19: model is not available")
(error "line 4115 column 19: model is not available")
(error "line 4116 column 18: model is not available")
(error "line 4117 column 19: model is not available")
(error "line 4118 column 19: model is not available")
(error "line 4119 column 19: model is not available")
(error "line 4120 column 19: model is not available")
(error "line 4121 column 19: model is not available")
(error "line 4122 column 19: model is not available")
(error "line 4123 column 19: model is not available")
(error "line 4124 column 19: model is not available")
(error "line 4125 column 19: model is not available")
(error "line 4126 column 19: model is not available")
(error "line 4127 column 18: model is not available")
(error "line 4128 column 19: model is not available")
(error "line 4129 column 19: model is not available")
(error "line 4130 column 19: model is not available")
(error "line 4131 column 19: model is not available")
(error "line 4132 column 19: model is not available")
(error "line 4133 column 19: model is not available")
(error "line 4134 column 19: model is not available")
(error "line 4135 column 19: model is not available")
(error "line 4136 column 19: model is not available")
(error "line 4137 column 19: model is not available")
(error "line 4138 column 18: model is not available")
(error "line 4139 column 19: model is not available")
(error "line 4140 column 19: model is not available")
(error "line 4141 column 19: model is not available")
(error "line 4142 column 19: model is not available")
(error "line 4143 column 19: model is not available")
(error "line 4144 column 19: model is not available")
(error "line 4145 column 19: model is not available")
(error "line 4146 column 19: model is not available")
(error "line 4147 column 19: model is not available")
(error "line 4148 column 19: model is not available")
(error "line 4149 column 18: model is not available")
(error "line 4150 column 19: model is not available")
(error "line 4151 column 19: model is not available")
(error "line 4152 column 19: model is not available")
(error "line 4153 column 18: model is not available")
(error "line 4154 column 18: model is not available")
(error "line 4155 column 18: model is not available")
(error "line 4156 column 18: model is not available")
(error "line 4157 column 17: model is not available")
(error "line 4158 column 18: model is not available")
(error "line 4159 column 18: model is not available")
(error "line 4160 column 18: model is not available")
(error "line 4161 column 18: model is not available")
(error "line 4162 column 18: model is not available")
(error "line 4163 column 18: model is not available")
(error "line 4164 column 18: model is not available")
(error "line 4165 column 18: model is not available")
(error "line 4166 column 18: model is not available")
(error "line 4167 column 18: model is not available")
(error "line 4168 column 17: model is not available")
(error "line 4169 column 18: model is not available")
(error "line 4170 column 18: model is not available")
(error "line 4171 column 18: model is not available")
(error "line 4172 column 18: model is not available")
(error "line 4173 column 18: model is not available")
(error "line 4174 column 18: model is not available")
(error "line 4175 column 18: model is not available")
(error "line 4176 column 18: model is not available")
(error "line 4177 column 18: model is not available")
(error "line 4178 column 18: model is not available")
(error "line 4179 column 17: model is not available")
(error "line 4180 column 18: model is not available")
(error "line 4181 column 18: model is not available")
(error "line 4182 column 18: model is not available")
(error "line 4183 column 18: model is not available")
(error "line 4184 column 18: model is not available")
(error "line 4185 column 18: model is not available")
(error "line 4186 column 18: model is not available")
(error "line 4187 column 18: model is not available")
(error "line 4188 column 18: model is not available")
(error "line 4189 column 18: model is not available")
(error "line 4190 column 17: model is not available")
(error "line 4191 column 18: model is not available")
(error "line 4192 column 18: model is not available")
(error "line 4193 column 18: model is not available")
(error "line 4194 column 18: model is not available")
(error "line 4195 column 18: model is not available")
(error "line 4196 column 18: model is not available")
(error "line 4197 column 18: model is not available")
(error "line 4198 column 18: model is not available")
(error "line 4199 column 18: model is not available")
(error "line 4200 column 18: model is not available")
(error "line 4201 column 17: model is not available")
(error "line 4202 column 18: model is not available")
(error "line 4203 column 18: model is not available")
(error "line 4204 column 18: model is not available")
(error "line 4205 column 18: model is not available")
(error "line 4206 column 18: model is not available")
(error "line 4207 column 18: model is not available")
(error "line 4208 column 18: model is not available")
(error "line 4209 column 18: model is not available")
(error "line 4210 column 18: model is not available")
(error "line 4211 column 18: model is not available")
(error "line 4212 column 17: model is not available")
(error "line 4213 column 18: model is not available")
(error "line 4214 column 18: model is not available")
(error "line 4215 column 18: model is not available")
(error "line 4216 column 18: model is not available")
(error "line 4217 column 18: model is not available")
(error "line 4218 column 18: model is not available")
(error "line 4219 column 18: model is not available")
(error "line 4220 column 18: model is not available")
(error "line 4221 column 18: model is not available")
(error "line 4222 column 18: model is not available")
(error "line 4223 column 17: model is not available")
(error "line 4224 column 18: model is not available")
(error "line 4225 column 18: model is not available")
(error "line 4226 column 18: model is not available")
(error "line 4227 column 18: model is not available")
(error "line 4228 column 18: model is not available")
(error "line 4229 column 18: model is not available")
(error "line 4230 column 18: model is not available")
(error "line 4231 column 18: model is not available")
(error "line 4232 column 18: model is not available")
(error "line 4233 column 18: model is not available")
(error "line 4234 column 17: model is not available")
(error "line 4235 column 18: model is not available")
(error "line 4236 column 18: model is not available")
(error "line 4237 column 18: model is not available")
(error "line 4238 column 18: model is not available")
(error "line 4239 column 18: model is not available")
(error "line 4240 column 18: model is not available")
(error "line 4241 column 18: model is not available")
(error "line 4242 column 18: model is not available")
(error "line 4243 column 18: model is not available")
(error "line 4244 column 18: model is not available")
(error "line 4245 column 38: model is not available")
(error "line 4246 column 45: model is not available")
(error "line 4247 column 38: model is not available")
(error "line 4248 column 45: model is not available")
(error "line 4249 column 46: model is not available")
(error "line 4250 column 53: model is not available")
(error "line 4251 column 40: model is not available")
(error "line 4252 column 47: model is not available")
(error "line 4253 column 38: model is not available")
(error "line 4254 column 45: model is not available")
(error "line 4255 column 38: model is not available")
(error "line 4256 column 45: model is not available")
(error "line 4257 column 41: model is not available")
(error "line 4258 column 48: model is not available")
(error "line 4259 column 41: model is not available")
(error "line 4260 column 48: model is not available")
(error "line 4261 column 37: model is not available")
(error "line 4262 column 44: model is not available")
(error "line 4263 column 42: model is not available")
(error "line 4264 column 42: model is not available")
(error "line 4265 column 38: model is not available")
(error "line 4266 column 38: model is not available")
(error "line 4267 column 38: model is not available")
(error "line 4268 column 41: model is not available")
(error "line 4269 column 48: model is not available")
(error "line 4270 column 41: model is not available")
(error "line 4271 column 48: model is not available")
(error "line 4272 column 41: model is not available")
(error "line 4273 column 48: model is not available")
(error "line 4274 column 22: model is not available")
(error "line 4275 column 29: model is not available")
(error "line 4276 column 23: model is not available")
(error "line 4277 column 30: model is not available")
(error "line 4278 column 23: model is not available")
(error "line 4279 column 30: model is not available")
(error "line 4280 column 23: model is not available")
(error "line 4281 column 30: model is not available")
(error "line 4282 column 23: model is not available")
(error "line 4283 column 30: model is not available")
(error "line 4284 column 23: model is not available")
(error "line 4285 column 30: model is not available")
(error "line 4286 column 23: model is not available")
(error "line 4287 column 30: model is not available")
(error "line 4288 column 22: model is not available")
(error "line 4289 column 29: model is not available")
(error "line 4290 column 22: model is not available")
(error "line 4291 column 29: model is not available")
(error "line 4292 column 22: model is not available")
(error "line 4293 column 29: model is not available")
(error "line 4294 column 22: model is not available")
(error "line 4295 column 29: model is not available")
(error "line 4296 column 22: model is not available")
(error "line 4297 column 29: model is not available")
(error "line 4298 column 22: model is not available")
(error "line 4299 column 29: model is not available")
(error "line 4300 column 22: model is not available")
(error "line 4301 column 29: model is not available")
(error "line 4302 column 22: model is not available")
(error "line 4303 column 29: model is not available")
(error "line 4304 column 22: model is not available")
(error "line 4305 column 29: model is not available")
(error "line 4306 column 23: model is not available")
(error "line 4307 column 30: model is not available")
(error "line 4308 column 23: model is not available")
(error "line 4309 column 30: model is not available")
(error "line 4310 column 23: model is not available")
(error "line 4311 column 30: model is not available")
(error "line 4312 column 23: model is not available")
(error "line 4313 column 30: model is not available")
(error "line 4314 column 23: model is not available")
(error "line 4315 column 30: model is not available")
(error "line 4316 column 23: model is not available")
(error "line 4317 column 30: model is not available")
(error "line 4318 column 22: model is not available")
(error "line 4319 column 29: model is not available")
(error "line 4320 column 22: model is not available")
(error "line 4321 column 29: model is not available")
(error "line 4322 column 22: model is not available")
(error "line 4323 column 29: model is not available")
(error "line 4324 column 22: model is not available")
(error "line 4325 column 29: model is not available")
(error "line 4326 column 22: model is not available")
(error "line 4327 column 29: model is not available")
(error "line 4328 column 22: model is not available")
(error "line 4329 column 29: model is not available")
(error "line 4330 column 22: model is not available")
(error "line 4331 column 29: model is not available")
(error "line 4332 column 22: model is not available")
(error "line 4333 column 29: model is not available")
(error "line 4334 column 38: model is not available")
(error "line 4335 column 39: model is not available")
(error "line 4336 column 39: model is not available")
(error "line 4337 column 39: model is not available")
(error "line 4338 column 39: model is not available")
(error "line 4339 column 39: model is not available")
(error "line 4340 column 39: model is not available")
(error "line 4341 column 39: model is not available")
(error "line 4342 column 39: model is not available")
(error "line 4343 column 39: model is not available")
(error "line 4344 column 39: model is not available")
(error "line 4345 column 38: model is not available")
(error "line 4346 column 39: model is not available")
(error "line 4347 column 39: model is not available")
(error "line 4348 column 39: model is not available")
(error "line 4349 column 39: model is not available")
(error "line 4350 column 39: model is not available")
(error "line 4351 column 39: model is not available")
(error "line 4352 column 39: model is not available")
(error "line 4353 column 38: model is not available")
(error "line 4354 column 38: model is not available")
(error "line 4355 column 38: model is not available")
(error "line 4356 column 38: model is not available")
(error "line 4357 column 38: model is not available")
(error "line 4358 column 38: model is not available")
(error "line 4359 column 38: model is not available")
(error "line 4360 column 36: model is not available")
(error "line 4361 column 36: model is not available")
(error "line 4362 column 29: model is not available")
(error "line 4363 column 31: model is not available")
(error "line 4364 column 38: model is not available")
(error "line 4365 column 31: model is not available")
(error "line 4366 column 38: model is not available")
(error "line 4367 column 51: model is not available")
(error "line 4368 column 51: model is not available")
(error "line 4369 column 53: model is not available")
(error "line 4370 column 53: model is not available")
(error "line 4371 column 53: model is not available")
(error "line 4372 column 53: model is not available")
(error "line 4373 column 53: model is not available")
(error "line 4374 column 53: model is not available")
(error "line 4375 column 51: model is not available")
(error "line 4376 column 52: model is not available")
(error "line 4377 column 52: model is not available")
(error "line 4378 column 53: model is not available")
(error "line 4379 column 53: model is not available")
(error "line 4380 column 53: model is not available")
(error "line 4381 column 53: model is not available")
(error "line 4382 column 52: model is not available")
(error "line 4383 column 52: model is not available")
(error "line 4384 column 53: model is not available")
(error "line 4385 column 53: model is not available")
(error "line 4386 column 53: model is not available")
(error "line 4387 column 53: model is not available")
(error "line 4388 column 53: model is not available")
(error "line 4389 column 53: model is not available")
(error "line 4390 column 52: model is not available")
(error "line 4391 column 52: model is not available")
(error "line 4392 column 52: model is not available")
(error "line 4393 column 53: model is not available")
(error "line 4394 column 54: model is not available")
(error "line 4395 column 54: model is not available")
(error "line 4396 column 54: model is not available")
(error "line 4397 column 52: model is not available")
(error "line 4398 column 52: model is not available")
(error "line 4399 column 53: model is not available")
(error "line 4400 column 53: model is not available")
(error "line 4401 column 53: model is not available")
(error "line 4402 column 53: model is not available")
(error "line 4403 column 53: model is not available")
(error "line 4404 column 53: model is not available")
(error "line 4405 column 52: model is not available")
(error "line 4406 column 52: model is not available")
(error "line 4407 column 52: model is not available")
(error "line 4408 column 54: model is not available")
(error "line 4409 column 54: model is not available")
(error "line 4410 column 54: model is not available")
(error "line 4411 column 54: model is not available")
(error "line 4412 column 52: model is not available")
(error "line 4413 column 52: model is not available")
(error "line 4414 column 53: model is not available")
(error "line 4415 column 53: model is not available")
(error "line 4416 column 53: model is not available")
(error "line 4417 column 53: model is not available")
(error "line 4418 column 53: model is not available")
(error "line 4419 column 53: model is not available")
(error "line 4420 column 52: model is not available")
(error "line 4421 column 52: model is not available")
(error "line 4422 column 52: model is not available")
(error "line 4423 column 54: model is not available")
(error "line 4424 column 54: model is not available")
(error "line 4425 column 54: model is not available")
(error "line 4426 column 54: model is not available")
(error "line 4427 column 52: model is not available")
(error "line 4428 column 52: model is not available")
(error "line 4429 column 52: model is not available")
(error "line 4430 column 53: model is not available")
(error "line 4431 column 53: model is not available")
(error "line 4432 column 53: model is not available")
(error "line 4433 column 53: model is not available")
(error "line 4434 column 53: model is not available")
(error "line 4435 column 53: model is not available")
(error "line 4436 column 53: model is not available")
(error "line 4437 column 53: model is not available")
(error "line 4438 column 53: model is not available")
(error "line 4439 column 53: model is not available")
(error "line 4440 column 53: model is not available")
(error "line 4441 column 54: model is not available")
(error "line 4442 column 54: model is not available")
(error "line 4443 column 54: model is not available")
(error "line 4444 column 54: model is not available")
(error "line 4445 column 53: model is not available")
(error "line 4446 column 53: model is not available")
(error "line 4447 column 53: model is not available")
(error "line 4448 column 53: model is not available")
(error "line 4449 column 53: model is not available")
(error "line 4450 column 53: model is not available")
(error "line 4451 column 53: model is not available")
(error "line 4452 column 53: model is not available")
(error "line 4453 column 53: model is not available")
(error "line 4454 column 53: model is not available")
(error "line 4455 column 53: model is not available")
(error "line 4456 column 54: model is not available")
(error "line 4457 column 54: model is not available")
(error "line 4458 column 54: model is not available")
(error "line 4459 column 54: model is not available")
(error "line 4460 column 52: model is not available")
(error "line 4461 column 52: model is not available")
(error "line 4462 column 52: model is not available")
(error "line 4463 column 52: model is not available")
(error "line 4464 column 52: model is not available")
(error "line 4465 column 52: model is not available")
(error "line 4466 column 52: model is not available")
(error "line 4467 column 52: model is not available")
(error "line 4468 column 52: model is not available")
(error "line 4469 column 52: model is not available")
(error "line 4470 column 52: model is not available")
(error "line 4471 column 52: model is not available")
(error "line 4472 column 52: model is not available")
(error "line 4473 column 52: model is not available")
(error "line 4474 column 51: model is not available")
(error "line 4475 column 53: model is not available")
(error "line 4476 column 53: model is not available")
(error "line 4477 column 53: model is not available")
(error "line 4478 column 53: model is not available")
(error "line 4479 column 52: model is not available")
(error "line 4480 column 52: model is not available")
(error "line 4481 column 52: model is not available")
(error "line 4482 column 52: model is not available")
(error "line 4483 column 52: model is not available")
(error "line 4484 column 52: model is not available")
(error "line 4485 column 52: model is not available")
(error "line 4486 column 52: model is not available")
(error "line 4487 column 52: model is not available")
(error "line 4488 column 52: model is not available")
(error "line 4489 column 52: model is not available")
(error "line 4490 column 53: model is not available")
(error "line 4491 column 53: model is not available")
(error "line 4492 column 53: model is not available")
(error "line 4493 column 53: model is not available")
(error "line 4494 column 58: model is not available")
(error "line 4495 column 58: model is not available")
(error "line 4496 column 58: model is not available")
(error "line 4497 column 58: model is not available")
(error "line 4498 column 57: model is not available")
(error "line 4499 column 56: model is not available")
(error "line 4500 column 57: model is not available")
(error "line 4501 column 57: model is not available")
(error "line 4502 column 57: model is not available")
(error "line 4503 column 57: model is not available")
(error "line 4504 column 57: model is not available")
(error "line 4505 column 57: model is not available")
(error "line 4506 column 56: model is not available")
(error "line 4507 column 56: model is not available")
(error "line 4508 column 56: model is not available")
(error "line 4509 column 46: model is not available")
(error "line 4510 column 46: model is not available")
(error "line 4511 column 54: model is not available")
(error "line 4512 column 54: model is not available")
(error "line 4513 column 54: model is not available")
(error "line 4514 column 40: model is not available")
(error "line 4515 column 40: model is not available")
(error "line 4516 column 41: model is not available")
(error "line 4517 column 41: model is not available")
(error "line 4518 column 50: model is not available")
(error "line 4519 column 50: model is not available")
(error "line 4520 column 43: model is not available")
(error "line 4521 column 43: model is not available")
(error "line 4522 column 26: model is not available")
(error "line 4523 column 30: model is not available")
(error "line 4524 column 36: model is not available")
(error "line 4525 column 36: model is not available")
(error "line 4526 column 30: model is not available")
(error "line 4527 column 36: model is not available")
(error "line 4528 column 36: model is not available")
(error "line 4529 column 30: model is not available")
(error "line 4530 column 21: model is not available")
(error "line 4531 column 28: model is not available")
(error "line 4532 column 22: model is not available")
(error "line 4533 column 29: model is not available")
(error "line 4534 column 22: model is not available")
(error "line 4535 column 29: model is not available")
(error "line 4536 column 22: model is not available")
(error "line 4537 column 29: model is not available")
(error "line 4538 column 22: model is not available")
(error "line 4539 column 29: model is not available")
(error "line 4540 column 22: model is not available")
(error "line 4541 column 29: model is not available")
(error "line 4542 column 22: model is not available")
(error "line 4543 column 29: model is not available")
(error "line 4544 column 22: model is not available")
(error "line 4545 column 29: model is not available")
(error "line 4546 column 22: model is not available")
(error "line 4547 column 29: model is not available")
(error "line 4548 column 22: model is not available")
(error "line 4549 column 29: model is not available")
(error "line 4550 column 22: model is not available")
(error "line 4551 column 29: model is not available")
(error "line 4552 column 21: model is not available")
(error "line 4553 column 28: model is not available")
(error "line 4554 column 21: model is not available")
(error "line 4555 column 28: model is not available")
(error "line 4556 column 21: model is not available")
(error "line 4557 column 28: model is not available")
(error "line 4558 column 21: model is not available")
(error "line 4559 column 28: model is not available")
(error "line 4560 column 21: model is not available")
(error "line 4561 column 28: model is not available")
(error "line 4562 column 21: model is not available")
(error "line 4563 column 28: model is not available")
(error "line 4564 column 21: model is not available")
(error "line 4565 column 28: model is not available")
(error "line 4566 column 21: model is not available")
(error "line 4567 column 28: model is not available")
(error "line 4568 column 18: model is not available")
(error "line 4569 column 25: model is not available")
(error "line 4570 column 18: model is not available")
(error "line 4571 column 25: model is not available")
(error "line 4572 column 18: model is not available")
(error "line 4573 column 25: model is not available")
(error "line 4574 column 18: model is not available")
(error "line 4575 column 25: model is not available")
(error "line 4576 column 18: model is not available")
(error "line 4577 column 25: model is not available")
(error "line 4579 column 10: model is not available")
(:added-eqs                      121
 :arith-bound-propagations-cheap 107
 :arith-bound-propagations-lp    413
 :arith-conflicts                1
 :arith-lower                    171
 :arith-make-feasible            84
 :arith-max-columns              303
 :arith-max-rows                 238
 :arith-propagations             107
 :arith-upper                    204
 :binary-propagations            731
 :bv-bit2core                    1045
 :bv->core-eq                    1
 :conflicts                      15
 :decisions                      247
 :del-clause                     98
 :eliminated-applications        17
 :eliminated-vars                26
 :max-memory                     6.39
 :memory                         3.81
 :minimized-lits                 3
 :mk-bool-var                    1476
 :mk-clause                      915
 :num-allocs                     6883698
 :num-checks                     1
 :propagations                   962
 :rlimit-count                   725243
 :time                           0.06
 :total-time                     0.08)

real	0m0.083s
user	0m0.082s
sys	0m0.000s
State: RE Run_time: 0.08468842506408691